language Essence 1.3

letting blksize_delta be function(1 --> 1, 2 --> 1, 3 --> 1, 4 --> 1, 5 --> 1, 6 --> 1)
letting maxcars be function(1 --> 3, 2 --> 3, 3 --> 3, 4 --> 3, 5 --> 3, 6 --> 3)
letting n_cars be 165
letting n_classes be 2
letting n_options be 6
letting quantity be function(1 --> 77, 2 --> 88)
letting usage be relation((1, 1), (1, 2), (1, 3), (1, 4), (1, 5), (2, 6))
$ Visualisation for usage
$ 1 1
$ 1 2
$ 1 3
$ 1 4
$ 1 5
$ 2 6

